LibMLKEM/why3-cvc5/mlkem.adb_2039_55_index_check_1.smt2
;; produced by cvc5.drv ;;
(set-logic ALL)
(set-info :smt-lib-version 2.6)
;;; generated by SMT-LIB2 driver
;;; SMT-LIB2 driver: bit-vectors, common part
;;; SMT-LIB2: integer arithmetic
;; "pow2"
(declare-fun pow2 (Int) Int)

(declare-const two_power_size_minus_one Int)

;; "two_power_size_minus_one_val"
(assert (= two_power_size_minus_one (pow2 (- 8 1))))

;; "min"
(define-fun min ((x Int) (y Int)) Int
  (ite (<= x y) x y))

;; "max"
(define-fun max ((x Int) (y Int)) Int
  (ite (<= x y) y x))

;; "Min_r"
(assert (forall ((x Int) (y Int)) (=> (<= y x) (= (min x y) y))))

;; "Max_l"
(assert (forall ((x Int) (y Int)) (=> (<= y x) (= (max x y) x))))

;; "Min_comm"
(assert (forall ((x Int) (y Int)) (= (min x y) (min y x))))

;; "Max_comm"
(assert (forall ((x Int) (y Int)) (= (max x y) (max y x))))

;; "Min_assoc"
(assert
  (forall ((x Int) (y Int) (z Int)) (= (min (min x y) z) (min x (min y z)))))

;; "Max_assoc"
(assert
  (forall ((x Int) (y Int) (z Int)) (= (max (max x y) z) (max x (max y z)))))

(declare-sort byte 0)

;; "to_rep"
(declare-fun to_rep (byte) (_ BitVec 8))

;; "of_rep"
(declare-fun of_rep ((_ BitVec 8)) byte)

;; "inversion_axiom"
(assert
  (forall ((x byte)) (! (= (of_rep (to_rep x)) x) :pattern ((to_rep x)) )))

;; "range_axiom"
(assert true)

;; "coerce_axiom"
(assert
  (forall ((x (_ BitVec 8)))
    (! (= (to_rep (of_rep x)) x) :pattern ((to_rep (of_rep x))) )))

(declare-sort map1 0)

;; "has_bounds"
(declare-fun has_bounds (map1
  Int
  Int) Bool)

;; "get"
(declare-fun get (map1
  Int) byte)

;; "set"
(declare-fun set (map1
  Int
  byte) map1)

;; "set_eq"
(assert
  (forall ((a map1) (i Int) (v byte))
    (! (= (get (set a i v) i) v) :pattern ((set a i v)) )))

;; "set_neq"
(assert
  (forall ((a map1) (i Int) (v byte))
    (! (forall ((j Int))
         (! (=> (not (= i j)) (= (get (set a i v) j) (get a j))) :pattern (
         (get
           a
           j)) :pattern ((get (set a i v) j)) )) :pattern ((set a i v)) )))

;; "set_has_bounds"
(assert
  (forall ((a map1) (i Int) (f Int) (l Int) (v byte))
    (! (=>
         (and (<= f i) (<= i l))
         (=> (has_bounds a f l) (has_bounds (set a i v) f l))) :pattern (
    (has_bounds
      (set a i v)
      f
      l)) )))

(declare-const swap Bool)

(declare-const c (_ BitVec 8))

;; Goal "def'vc"
;; File "mlkem.adb", line 2017, characters 0-0
(assert
  (not
  (forall ((k_bar map1) (result__ map1))
    (=>
      (has_bounds k_bar 0 31)
      (=>
        (has_bounds result__ 0 31)
        (=>
          (= (bvmul #xFF ((_ int2bv 8) (ite swap 1 0))) c)
          (forall ((i Int))
            (=>
              (= i 0)
              (=>
                (= (and (ite (<= 0 i) true false) (ite (<= i 31) true false)) true)
                (forall ((o (_ BitVec 8)))
                  (=>
                    (= (to_rep (get result__ i)) o)
                    (forall ((o1 (_ BitVec 8)))
                      (=>
                        (= (to_rep (get k_bar i)) o1)
                        (forall ((t (_ BitVec 8)))
                          (=>
                            (= t (bvand c (bvxor o1 o)))
                            (forall ((o2 (_ BitVec 8)))
                              (=>
                                (= (to_rep (get k_bar i)) o2)
                                (forall ((o3 byte))
                                  (=>
                                    (= (to_rep o3) (bvxor o2 t))
                                    (forall ((k_bar1 map1))
                                      (=>
                                        (= k_bar1 (set k_bar i o3))
                                        (forall ((o4 (_ BitVec 8)))
                                          (=>
                                            (= (to_rep (get result__ i)) o4)
                                            (forall ((o5 byte))
                                              (=>
                                                (= (to_rep o5) (bvxor o4 t))
                                                (forall ((result__1 map1))
                                                  (=>
                                                    (= result__1 (set
                                                                   result__
                                                                   i
                                                                   o5))
                                                    (=>
                                                      (= swap true)
                                                      (forall ((usf Int))
                                                        (=>
                                                          (= (and (ite (<= 0 usf)
                                                                    true
                                                                    false) 
                                                          (ite (<= usf i)
                                                            true
                                                            false)) true)
                                                          (and
                                                            (<= 0 usf)
                                                            (<= usf 31))))))))))))))))))))))))))))))))

(check-sat)
